c ind 10 100 102 104 106 108 110 112 114 116 0
c ind 118 120 122 124 126 128 13 15 16 210 0
c ind 25 28 47 49 5 51 53 55 57 59 0
c ind 6 61 63 65 67 69 71 73 75 77 0
c ind 9 98 0
p cnf 211 615
-1 -2 11 0
-1 2 211 0
-101 -102 13 0
-101 -13 102 0
-103 -104 13 0
-103 -13 104 0
-105 -106 13 0
-105 -13 106 0
-107 -108 13 0
-107 -13 108 0
-109 -110 13 0
-109 -13 110 0
-11 -12 14 0
-11 12 17 0
-111 -112 13 0
-111 -13 112 0
-113 -114 13 0
-113 -13 114 0
-115 -116 13 0
-115 -13 116 0
-117 -118 13 0
-117 -13 118 0
-119 -120 13 0
-119 -13 120 0
-12 -13 9 0
-12 -9 13 0
-121 -122 13 0
-121 -13 122 0
-123 -124 13 0
-123 -13 124 0
-125 -126 13 0
-125 -13 126 0
-127 -128 13 0
-127 -13 128 0
-129 130 0
-129 203 0
-130 131 0
-130 199 0
-131 132 0
-131 195 0
-132 133 0
-132 191 0
-133 134 0
-133 187 0
-134 135 0
-134 183 0
-135 136 0
-135 179 0
-136 137 0
-136 175 0
-137 138 0
-137 171 0
-138 139 0
-138 167 0
-139 140 0
-139 163 0
-14 -15 16 0
-14 -16 15 0
-140 141 0
-140 159 0
-141 142 0
-141 155 0
-142 143 0
-142 151 0
-143 144 0
-143 147 0
-144 -13 145 0
-144 -145 13 0
-145 -146 -16 0
-145 146 16 0
-146 -47 -13 0
-146 47 13 0
-147 -13 148 0
-147 -148 13 0
-148 -149 -150 0
-148 149 150 0
-149 -49 -16 0
-149 49 16 0
-150 47 16 0
-151 -13 152 0
-151 -152 13 0
-152 -153 -154 0
-152 153 154 0
-153 -51 -16 0
-153 51 16 0
-154 150 0
-154 49 0
-155 -13 156 0
-155 -156 13 0
-156 -157 -158 0
-156 157 158 0
-157 -53 -16 0
-157 53 16 0
-158 154 0
-158 51 0
-159 -13 160 0
-159 -160 13 0
-16 0
-160 -161 -162 0
-160 161 162 0
-161 -55 -16 0
-161 55 16 0
-162 158 0
-162 53 0
-163 -13 164 0
-163 -164 13 0
-164 -165 -166 0
-164 165 166 0
-165 -57 -16 0
-165 57 16 0
-166 162 0
-166 55 0
-167 -13 168 0
-167 -168 13 0
-168 -169 -170 0
-168 169 170 0
-169 -59 -16 0
-169 59 16 0
-17 -18 20 0
-17 18 211 0
-170 166 0
-170 57 0
-171 -13 172 0
-171 -172 13 0
-172 -173 -174 0
-172 173 174 0
-173 -61 -16 0
-173 61 16 0
-174 170 0
-174 59 0
-175 -13 176 0
-175 -176 13 0
-176 -177 -178 0
-176 177 178 0
-177 -63 -16 0
-177 63 16 0
-178 174 0
-178 61 0
-179 -13 180 0
-179 -180 13 0
-18 19 0
-18 3 0
-180 -181 -182 0
-180 181 182 0
-181 -65 -16 0
-181 65 16 0
-182 178 0
-182 63 0
-183 -13 184 0
-183 -184 13 0
-184 -185 -186 0
-184 185 186 0
-185 -67 -16 0
-185 67 16 0
-186 182 0
-186 65 0
-187 -13 188 0
-187 -188 13 0
-188 -189 -190 0
-188 189 190 0
-189 -69 -16 0
-189 69 16 0
-19 -13 5 0
-19 -5 13 0
-190 186 0
-190 67 0
-191 -13 192 0
-191 -192 13 0
-192 -193 -194 0
-192 193 194 0
-193 -71 -16 0
-193 71 16 0
-194 190 0
-194 69 0
-195 -13 196 0
-195 -196 13 0
-196 -197 -198 0
-196 197 198 0
-197 -73 -16 0
-197 73 16 0
-198 194 0
-198 71 0
-199 -13 200 0
-199 -200 13 0
-2 3 7 0
-20 -21 207 0
-20 21 211 0
-200 -201 -202 0
-200 201 202 0
-201 -75 -16 0
-201 75 16 0
-202 198 0
-202 73 0
-203 -13 204 0
-203 -204 13 0
-204 -205 -206 0
-204 205 206 0
-205 -77 -16 0
-205 77 16 0
-206 202 0
-206 75 0
-207 -15 208 0
-207 -208 15 0
-208 -209 -16 0
-208 209 16 0
-209 -210 -13 0
-209 210 13 0
-21 -22 29 0
-21 22 31 0
-211 -15 210 0
-211 -210 15 0
-22 23 26 0
-23 -24 0
-24 -25 6 0
-24 -6 25 0
-26 -27 0
-27 -10 28 0
-27 -28 10 0
-29 -30 31 0
-29 30 78 0
-3 -4 0
-30 -10 13 0
-30 -13 10 0
-31 32 0
-31 76 0
-32 33 0
-32 74 0
-33 34 0
-33 72 0
-34 35 0
-34 70 0
-35 36 0
-35 68 0
-36 37 0
-36 66 0
-37 38 0
-37 64 0
-38 39 0
-38 62 0
-39 40 0
-39 60 0
-4 -5 6 0
-4 -6 5 0
-40 41 0
-40 58 0
-41 42 0
-41 56 0
-42 43 0
-42 54 0
-43 44 0
-43 52 0
-44 45 0
-44 50 0
-45 46 0
-45 48 0
-46 -13 47 0
-46 -47 13 0
-48 -13 49 0
-48 -49 13 0
-50 -13 51 0
-50 -51 13 0
-52 -13 53 0
-52 -53 13 0
-54 -13 55 0
-54 -55 13 0
-56 -13 57 0
-56 -57 13 0
-58 -13 59 0
-58 -59 13 0
-60 -13 61 0
-60 -61 13 0
-62 -13 63 0
-62 -63 13 0
-64 -13 65 0
-64 -65 13 0
-66 -13 67 0
-66 -67 13 0
-68 -13 69 0
-68 -69 13 0
-7 -8 0
-70 -13 71 0
-70 -71 13 0
-72 -13 73 0
-72 -73 13 0
-74 -13 75 0
-74 -75 13 0
-76 -13 77 0
-76 -77 13 0
-78 -79 81 0
-78 79 31 0
-79 23 0
-79 80 0
-8 -10 9 0
-8 -9 10 0
-80 -13 6 0
-80 -6 13 0
-81 -31 82 0
-81 31 129 0
-82 127 0
-82 83 0
-83 125 0
-83 84 0
-84 123 0
-84 85 0
-85 121 0
-85 86 0
-86 119 0
-86 87 0
-87 117 0
-87 88 0
-88 115 0
-88 89 0
-89 113 0
-89 90 0
-90 111 0
-90 91 0
-91 109 0
-91 92 0
-92 107 0
-92 93 0
-93 105 0
-93 94 0
-94 103 0
-94 95 0
-95 101 0
-95 96 0
-96 97 0
-96 99 0
-97 -13 98 0
-97 -98 13 0
-99 -100 13 0
-99 -13 100 0
1 -11 -211 0
1 -2 -11 0
1 0
1 2 -211 0
101 -102 -13 0
101 102 13 0
103 -104 -13 0
103 104 13 0
105 -106 -13 0
105 106 13 0
107 -108 -13 0
107 108 13 0
109 -110 -13 0
109 110 13 0
11 -12 -14 0
11 -14 -17 0
11 12 -17 0
111 -112 -13 0
111 112 13 0
113 -114 -13 0
113 114 13 0
115 -116 -13 0
115 116 13 0
117 -118 -13 0
117 118 13 0
119 -120 -13 0
119 120 13 0
12 -9 -13 0
12 9 13 0
121 -122 -13 0
121 122 13 0
123 -124 -13 0
123 124 13 0
125 -126 -13 0
125 126 13 0
127 -128 -13 0
127 128 13 0
129 -130 -203 0
13 0
130 -131 -199 0
131 -132 -195 0
132 -133 -191 0
133 -134 -187 0
134 -135 -183 0
135 -136 -179 0
136 -137 -175 0
137 -138 -171 0
138 -139 -167 0
139 -140 -163 0
14 -15 -16 0
14 15 16 0
140 -141 -159 0
141 -142 -155 0
142 -143 -151 0
143 -144 -147 0
144 -145 -13 0
144 145 13 0
145 -146 16 0
145 -16 146 0
146 -13 47 0
146 -47 13 0
147 -148 -13 0
147 148 13 0
148 -149 150 0
148 -150 149 0
149 -16 49 0
149 -49 16 0
150 -16 0
150 -47 0
151 -152 -13 0
151 152 13 0
152 -153 154 0
152 -154 153 0
153 -16 51 0
153 -51 16 0
154 -49 -150 0
155 -156 -13 0
155 156 13 0
156 -157 158 0
156 -158 157 0
157 -16 53 0
157 -53 16 0
158 -51 -154 0
159 -160 -13 0
159 160 13 0
160 -161 162 0
160 -162 161 0
161 -16 55 0
161 -55 16 0
162 -53 -158 0
163 -164 -13 0
163 164 13 0
164 -165 166 0
164 -166 165 0
165 -16 57 0
165 -57 16 0
166 -55 -162 0
167 -168 -13 0
167 168 13 0
168 -169 170 0
168 -170 169 0
169 -16 59 0
169 -59 16 0
17 -18 -20 0
17 -20 -211 0
17 18 -211 0
170 -57 -166 0
171 -172 -13 0
171 172 13 0
172 -173 174 0
172 -174 173 0
173 -16 61 0
173 -61 16 0
174 -59 -170 0
175 -176 -13 0
175 176 13 0
176 -177 178 0
176 -178 177 0
177 -16 63 0
177 -63 16 0
178 -61 -174 0
179 -180 -13 0
179 180 13 0
18 -3 -19 0
180 -181 182 0
180 -182 181 0
181 -16 65 0
181 -65 16 0
182 -63 -178 0
183 -184 -13 0
183 184 13 0
184 -185 186 0
184 -186 185 0
185 -16 67 0
185 -67 16 0
186 -65 -182 0
187 -188 -13 0
187 188 13 0
188 -189 190 0
188 -190 189 0
189 -16 69 0
189 -69 16 0
19 -5 -13 0
19 5 13 0
190 -67 -186 0
191 -192 -13 0
191 192 13 0
192 -193 194 0
192 -194 193 0
193 -16 71 0
193 -71 16 0
194 -69 -190 0
195 -196 -13 0
195 196 13 0
196 -197 198 0
196 -198 197 0
197 -16 73 0
197 -73 16 0
198 -71 -194 0
199 -200 -13 0
199 200 13 0
2 -3 0
2 -7 0
20 -207 -211 0
20 -21 -207 0
20 21 -211 0
200 -201 202 0
200 -202 201 0
201 -16 75 0
201 -75 16 0
202 -73 -198 0
203 -204 -13 0
203 204 13 0
204 -205 206 0
204 -206 205 0
205 -16 77 0
205 -77 16 0
206 -75 -202 0
207 -15 -208 0
207 15 208 0
208 -16 209 0
208 -209 16 0
209 -13 210 0
209 -210 13 0
21 -22 -29 0
21 -29 -31 0
21 22 -31 0
211 -15 -210 0
211 15 210 0
22 -23 0
22 -26 0
23 24 0
24 -6 -25 0
24 6 25 0
26 27 0
27 -10 -28 0
27 10 28 0
29 -30 -31 0
29 -31 -78 0
29 30 -78 0
3 4 0
30 -10 -13 0
30 10 13 0
31 -32 -76 0
32 -33 -74 0
33 -34 -72 0
34 -35 -70 0
35 -36 -68 0
36 -37 -66 0
37 -38 -64 0
38 -39 -62 0
39 -40 -60 0
4 -5 -6 0
4 5 6 0
40 -41 -58 0
41 -42 -56 0
42 -43 -54 0
43 -44 -52 0
44 -45 -50 0
45 -46 -48 0
46 -47 -13 0
46 47 13 0
48 -49 -13 0
48 49 13 0
50 -51 -13 0
50 51 13 0
52 -53 -13 0
52 53 13 0
54 -55 -13 0
54 55 13 0
56 -57 -13 0
56 57 13 0
58 -59 -13 0
58 59 13 0
60 -61 -13 0
60 61 13 0
62 -63 -13 0
62 63 13 0
64 -65 -13 0
64 65 13 0
66 -67 -13 0
66 67 13 0
68 -69 -13 0
68 69 13 0
7 8 0
70 -71 -13 0
70 71 13 0
72 -73 -13 0
72 73 13 0
74 -75 -13 0
74 75 13 0
76 -77 -13 0
76 77 13 0
78 -79 -81 0
78 -81 -31 0
78 79 -31 0
79 -23 -80 0
8 -9 -10 0
8 9 10 0
80 -6 -13 0
80 6 13 0
81 -31 -82 0
81 -82 -129 0
81 31 -129 0
82 -83 -127 0
83 -84 -125 0
84 -85 -123 0
85 -86 -121 0
86 -87 -119 0
87 -88 -117 0
88 -89 -115 0
89 -90 -113 0
90 -91 -111 0
91 -92 -109 0
92 -93 -107 0
93 -94 -105 0
94 -95 -103 0
95 -96 -101 0
96 -97 -99 0
97 -98 -13 0
97 98 13 0
99 -100 -13 0
99 100 13 0
